%nproc=20
%chk=DPPBTZ-torsion-3.chk
#b3lyp/6-31g* SCF=tight Opt=ModRedundant

Torsion calculation on oligomer16

0,1
C
C  1  r2
C  1  r3  2  a3
N  2  r4  1  a4  3  d4
N  4  r5  2  a5  1  d5
N  2  r6  1  a6  3  d6
C  5  r7  4  a7  2  d7
H  3  r8  1  a8  2  d8
H  3  r9  1  a9  2  d9
H  7  r10  5  a10  4  d10
H  7  r11  5  a11  4  d11
H  7  r12  5  a12  4  d12
C  9  r13  3  a13  1  d13
C  4  r14  2  a14  1  d14
C  13  r15  9  a15  3  d15
H  15  r16  13  a16  9  d16
C  1  r17  2  a17  3  d17
C  17  r18  1  a18  2  d18
S  17  r19  1  a19  2  d19
H  18  r20  17  a20  1  d20
H  18  r21  17  a21  1  d21
C  20  r22  18  a22  17  d22
C  22  r23  20  a23  18  d23
C  17  r24  1  a24  2  d24
C  24  r25  17  a25  1  d25
N  24  r26  17  a26  1  d26
C  26  r27  24  a27  17  d27
C  25  r28  24  a28  17  d28
O  28  r29  25  a29  24  d29
O  27  r30  26  a30  24  d30
C  28  r31  25  a31  24  d31
C  26  r32  24  a32  17  d32
H  32  r33  26  a33  24  d33
H  32  r34  26  a34  24  d34
H  32  r35  26  a35  24  d35
H  31  r36  28  a36  25  d36
H  31  r37  28  a37  25  d37
H  31  r38  28  a38  25  d38
N  28  r39  25  a39  24  d39
C  25  r40  24  a40  17  d40
C  39  r41  28  a41  25  d41
C  24  r42  17  a42  1  d42
C  42  r43  24  a43  17  d43
S  42  r44  24  a44  17  d44
H  29  r45  28  a45  25  d45
H  43  r46  42  a46  24  d46
C  45  r47  29  a47  28  d47
C  47  r48  45  a48  29  d48
C  42  r49  24  a49  17  d49
C  49  r50  42  a50  24  d50
C  49  r51  42  a51  24  d51
N  50  r52  49  a52  42  d52
N  52  r53  50  a53  49  d53
N  50  r54  49  a54  42  d54
C  53  r55  52  a55  50  d55
H  51  r56  49  a56  42  d56
H  51  r57  49  a57  42  d57
H  55  r58  53  a58  52  d58
H  55  r59  53  a59  52  d59
H  55  r60  53  a60  52  d60
C  57  r61  51  a61  49  d61
C  52  r62  50  a62  49  d62
C  61  r63  57  a63  51  d63
C  49  r64  42  a64  24  d64
C  64  r65  49  a65  42  d65
S  64  r66  49  a66  42  d66
H  65  r67  64  a67  49  d67
H  65  r68  64  a68  49  d68
C  67  r69  65  a69  64  d69
C  69  r70  67  a70  65  d70
H  64  r71  49  a71  42  d71
Variables:
r2= 1.4293
r3= 1.3918
a3= 115.66
r4= 2.2854
a4= 155.25
d4= 360.00
r5= 1.3714
a5=  66.08
d5= 180.00
r6= 1.3613
a6= 130.03
d6= 180.00
r7= 1.4643
a7= 122.05
d7= 179.99
r8= 1.0841
a8= 119.03
d8= 180.00
r9= 2.1558
a9= 149.25
d9=   0.00
r10= 1.0884
a10= 106.73
d10=   0.03
r11= 1.0917
a11= 109.35
d11= 240.20
r12= 1.0917
a12= 109.35
d12= 119.87
r13= 1.0833
a13=  35.40
d13= 360.00
r14= 1.3645
a14=  36.32
d14=   0.00
r15= 1.3771
a15= 119.80
d15= 180.00
r16= 1.0812
a16= 122.18
d16= 360.00
r17= 3.9481
a17= 130.53
d17= 180.00
r18= 1.3935
a18=  71.64
d18=   0.01
r19= 1.7571
a19=  38.76
d19= 180.00
r20= 2.2098
a20= 136.95
d20= 360.00
r21= 1.0843
a21= 121.69
d21= 180.00
r22= 1.0790
a22=  31.57
d22=   0.00
r23= 1.3883
a23= 121.34
d23= 180.00
r24= 4.8108
a24= 173.87
d24= 359.94
r25= 1.3974
a25=  31.24
d25= 180.04
r26= 1.3943
a26=  75.52
d26=   0.05
r27= 1.4530
a27= 111.42
d27=   0.00
r28= 1.4381
a28= 141.75
d28= 179.97
r29= 1.2465
a29= 134.45
d29=   0.01
r30= 1.2463
a30= 121.98
d30= 180.00
r31= 2.5160
a31= 134.18
d31= 180.01
r32= 1.4656
a32= 129.49
d32= 180.00
r33= 1.0934
a33= 105.07
d33= 180.00
r34= 1.0941
a34= 111.40
d34=  61.53
r35= 1.0941
a35= 111.40
d35= 298.46
r36= 1.0942
a36= 122.61
d36=  76.35
r37= 1.0941
a37= 122.61
d37= 283.68
r38= 1.0934
a38=  74.75
d38= 180.01
r39= 1.4532
a39= 103.58
d39= 180.02
r40= 1.4234
a40= 109.39
d40= 359.99
r41= 1.3941
a41= 111.41
d41=   0.00
r42= 3.9346
a42= 164.64
d42= 180.04
r43= 1.3901
a43=  70.32
d43=   0.01
r44= 1.7520
a44=  40.10
d44= 180.01
r45= 2.0763
a45=  99.94
d45=   0.00
r46= 1.0787
a46= 121.38
d46= 180.01
r47= 1.0843
a47= 151.24
d47= 359.99
r48= 1.3943
a48= 121.65
d48=   0.00
r49= 4.3878
a49= 161.47
d49= 180.02
r50= 1.4272
a50=  58.35
d50= 179.99
r51= 1.3927
a51=  56.61
d51= 359.99
r52= 2.2771
a52= 156.18
d52= 360.00
r53= 1.3710
a53=  66.38
d53= 180.00
r54= 1.3617
a54= 129.22
d54= 180.00
r55= 1.4644
a55= 122.06
d55= 180.01
r56= 1.0838
a56= 118.98
d56= 180.00
r57= 2.1393
a57= 149.95
d57= 360.00
r58= 1.0884
a58= 106.78
d58= 359.90
r59= 1.0917
a59= 109.35
d59= 119.70
r60= 1.0917
a60= 109.34
d60= 240.11
r61= 1.0840
a61=  35.66
d61=   0.00
r62= 1.3604
a62=  36.59
d62=   0.01
r63= 1.3935
a63= 119.02
d63= 180.00
r64= 3.9293
a64= 170.33
d64= 359.99
r65= 1.3712
a65=  72.65
d65= 180.00
r66= 1.7311
a66=  39.22
d66= 360.00
r67= 2.2279
a67= 136.20
d67= 360.00
r68= 1.0807
a68= 123.46
d68= 180.00
r69= 1.0789
a69=  31.58
d69=   0.01
r70= 1.3830
a70= 121.60
d70= 180.00
r71= 1.0787
a71= 159.55
d71=   0.00

25 24 48 47 S 36 10.0

